7827 12173 1304
10514 9486 1251
10862 9138 1222
6878 12122 1328
11830 7170 1064
10826 8174 1226
9054 10946 1320
6736 12264 1201
8331 10669 1366
11879 6121 946
9905 9095 1296
9669 10331 1307
7417 11583 1354
9633 9367 1311
11742 7258 1102
6741 12259 1283
8292 11708 1314
7138 10862 1377
8636 10364 1360
11461 8539 1136
